outputs/case_160.model.txt
internal_control_changed_within_deadline = False
internal_control_change_notified = False
violation_minor = True
improvement_completed = True
fail_submit_documents = False
violate_other_finance_business_management_rules = False
fail_execute_internal_control = True
violate_finance_business_management_rules = True
fail_produce_report_or_documents = False
obstruct_inspection = False
violate_specified_articles = False
violation_of_law_or_regulation = True
dismissal_ordered = False
stop_business_within_one_year = True
deficiency_severe = False
internal_control_deficiency_improved = False
violation_178_1_minor_exempt = True
illegal_disclosure_of_client_info = False
underwriting_personnel_get_improper_benefits = False
internal_control_written = True
agent_open_account_or_trade_for_others = False
profit_guarantee_or_sharing = False
internal_control_deficiency_reported = True
internal_control_established = True
use_others_or_relatives_account = False
violation_178_1 = True
speculation_using_insider_info = False
stop_business_ordered = True
internal_control_system_set = True
induce_buy_sell_based_on_price_prediction = False
external_financial_report_false = False
other_special_review_needed = False
violation_found = True
annual_audit_plan_executed = True
self_dealing_as_counterparty = False
accept_non_self_or_unappointed_agent_trade = False
business_operated_according_to_internal_control = True
honest_and_credit_principle = True
suspend_business_within_6_months = False
business_operated_according_to_articles = True
misuse_or_custody_of_client_assets = False
major_fraud_occurred = False
use_client_account_for_trading = False
joint_loss_profit_agreement = False
solicit_unapproved_securities_or_derivatives = False
penalty_66_disposition = False
business_operated_according_to_law = True
full_power_delegation_to_client = False
fraud_or_misleading_in_underwriting_or_trading = False
revoke_business_license = False
warning_issued = False
loan_or_mediation_with_client = False
accept_non_self_open_account = False
annual_audit_plan_reported = True
internal_audit_staff_adequate = True
promote_unapproved_stocks = False
prohibited_behaviors_apply_to_employees = True
honest_and_credit_followed = True
accept_board_supervisor_employee_open_account_or_trade_for_others = False
not_follow_client_instructions = False
accept_client_with_insider_info_or_market_manipulation_intent = False
internal_control_violation_conditions = False
accept_trading_without_contract = False
violate_securities_management_laws_or_regulations = False
prohibited_behaviors = True
internal_control_self_assessed = True
offset_same_stock_buy_sell_in_same_day = False
penalty = False
other_necessary_measures = False
dismiss_board_supervisor_manager = False
internal_control_compliant = True
internal_control_updated = True